3 4 2
3 2 1 17 2 25 2 4 40 2 30 2 4 150 3 160
3 2 1 30 3 50 2 4 55 2 66 2 4 78 3 65
3 2 1 56 2 62 2 2 70 3 80 2 4 90 3 100

10 1000000 1000000 4 1000000 1000000 6 1000000 1000000 
1000000 1000000 1000000 1000000 1000000 1000000 1000000 1000000 1000000 
1000000 1000000 1000000 1000000 1000000 1000000 1000000 1000000 1000000 
6 1000000 1000000 10 1000000 1000000 6 1000000 1000000 
1000000 1000000 1000000 1000000 1000000 1000000 1000000 1000000 1000000 
1000000 1000000 1000000 1000000 1000000 1000000 1000000 1000000 1000000 
4 1000000 1000000 5 1000000 1000000 10 1000000 1000000 
1000000 1000000 1000000 1000000 1000000 1000000 1000000 1000000 1000000 
1000000 1000000 1000000 1000000 1000000 1000000 1000000 1000000 1000000 
10 7 1000000 1000000 7 1000000 7 5 1000000 
9 12 1000000 1000000 9 1000000 5 6 1000000 
1000000 1000000 1000000 1000000 1000000 1000000 1000000 1000000 1000000 
1000000 1000000 1000000 1000000 1000000 1000000 1000000 1000000 1000000 
6 5 1000000 1000000 13 1000000 6 7 1000000 
1000000 1000000 1000000 1000000 1000000 1000000 1000000 1000000 1000000 
9 7 1000000 1000000 8 1000000 10 5 1000000 
5 7 1000000 1000000 6 1000000 5 10 1000000 
1000000 1000000 1000000 1000000 1000000 1000000 1000000 1000000 1000000 
1000000 1000000 1000000 1000000 1000000 1000000 1000000 1000000 1000000 
1000000 1000000 1000000 1000000 1000000 1000000 1000000 1000000 1000000 
1000000 1000000 12 8 1000000 6 1000000 7 6 
1000000 1000000 6 10 1000000 8 1000000 7 5 
1000000 1000000 1000000 1000000 1000000 1000000 1000000 1000000 1000000 
1000000 1000000 6 7 1000000 12 1000000 7 9 
1000000 1000000 1000000 1000000 1000000 1000000 1000000 1000000 1000000 
1000000 1000000 7 9 1000000 8 1000000 11 5 
1000000 1000000 8 5 1000000 8 1000000 6 10 
1000000 1000000 1000000 1000000 1000000 1000000 1000000 1000000 1000000 
1000000 11 5 1000000 8 5 1000000 1000000 6 
1000000 6 11 1000000 7 7 1000000 1000000 8 
1000000 1000000 1000000 1000000 1000000 1000000 1000000 1000000 1000000 
1000000 8 8 1000000 11 7 1000000 1000000 5 
1000000 7 7 1000000 6 12 1000000 1000000 7 
1000000 1000000 1000000 1000000 1000000 1000000 1000000 1000000 1000000 
1000000 1000000 1000000 1000000 1000000 1000000 1000000 1000000 1000000 
1000000 9 5 1000000 6 6 1000000 1000000 11 
